(declare-const BAV1 Bool)
(declare-const BAV2 Bool)
(declare-const GEN6 (_ BitVec 2))
(declare-const GEN5 (_ BitVec 3))
(declare-const GEN4 (_ BitVec 1))
(declare-const GEN3 (_ BitVec 16))
(declare-const GEN2 Int)
(declare-const GEN1 Int)
(set-info :source "Handcrafted by C.M. Wintersteiger")
(declare-fun X ()  (_ FloatingPoint 11 53))
(declare-fun T () (_ FloatingPoint 3 3))
(assert (= T ((_ to_fp 3 3) RTZ GEN3)))
(assert (= T (fp GEN4 GEN5 GEN6)))
(assert (= BAV1 (= T ((_ to_fp 3 3) RTZ GEN3))))
(assert (= BAV2 (= T (fp GEN4 GEN5 GEN6))))
(check-sat)
(get-model)
(check-sat-using smt)
(exit)